(set-info :source |printed by MathSAT|)
(declare-fun |!{$(in_main#0)<N>}| () Int)
(declare-fun |!{$(in_main#0)<N>}.next| () Int)
(declare-fun |!{$(in_main#0)<i>}| () Int)
(declare-fun |!{$(in_main#0)<i>}.next| () Int)
(declare-fun |!{$(in_main#0)<j>}| () Int)
(declare-fun |!{$(in_main#0)<j>}.next| () Int)
(declare-fun |!{$(in_main#0)<k>}| () Int)
(declare-fun |!{$(in_main#0)<k>}.next| () Int)
(declare-fun |!{$(in_main#0)<k#1>}| () Int)
(declare-fun |!{$(in_main#0)<k#1>}.next| () Int)
(declare-fun |!{$(in_main#0)<l>}| () Int)
(declare-fun |!{$(in_main#0)<l>}.next| () Int)
(declare-fun |!{$(in_main#0)<array.1>}| () (Array Int Int))
(declare-fun |!{$(in_main#0)<array.1>}.next| () (Array Int Int))
(declare-fun |!{$(in_main#0)<$(in___VERIFIER_nondet_int#0)<h#<__VERIFIER_nondet_int.return>>>}| () Int)
(declare-fun |!{$(in_main#0)<$(in___VERIFIER_nondet_int#2)<h#<__VERIFIER_nondet_int.return>>>}| () Int)
(declare-fun !pc () Int)
(declare-fun !pc.next () Int)
(declare-fun |%{$(in_main#0)<i>}#1| () Int)
(declare-fun |%{$(in_main#0)<j>}#1| () Int)
(declare-fun |%{$(in_main#0)<k#1>}#1| () Int)
(declare-fun |%{$(in_main#0)<l>}#1| () Int)
(declare-fun |%{$(in_main#0)<array.1>}#1| () (Array Int Int))
(define-fun .def_38 () Int (! !pc :next !pc.next))
(define-fun .def_41 () Bool (! (= .def_38 2) :init true))
(define-fun .def_252 () Bool (= .def_38 43))
(define-fun .def_226 () Bool (= !pc.next 63))
(define-fun .def_255 () Bool (and .def_226 .def_252))
(define-fun .def_244 () Bool (= |!{$(in_main#0)<i>}.next| 1))
(define-fun .def_8 () Int (! |!{$(in_main#0)<N>}| :next |!{$(in_main#0)<N>}.next|))
(define-fun .def_85 () Bool (= .def_8 |!{$(in_main#0)<N>}.next|))
(define-fun .def_245 () Bool (and .def_85 .def_244))
(define-fun .def_12 () Int (! |!{$(in_main#0)<j>}| :next |!{$(in_main#0)<j>}.next|))
(define-fun .def_88 () Bool (= .def_12 |!{$(in_main#0)<j>}.next|))
(define-fun .def_246 () Bool (and .def_88 .def_245))
(define-fun .def_14 () Int (! |!{$(in_main#0)<k>}| :next |!{$(in_main#0)<k>}.next|))
(define-fun .def_90 () Bool (= .def_14 |!{$(in_main#0)<k>}.next|))
(define-fun .def_247 () Bool (and .def_90 .def_246))
(define-fun .def_16 () Int (! |!{$(in_main#0)<k#1>}| :next |!{$(in_main#0)<k#1>}.next|))
(define-fun .def_92 () Bool (= .def_16 |!{$(in_main#0)<k#1>}.next|))
(define-fun .def_248 () Bool (and .def_92 .def_247))
(define-fun .def_18 () Int (! |!{$(in_main#0)<l>}| :next |!{$(in_main#0)<l>}.next|))
(define-fun .def_106 () Bool (= .def_18 |!{$(in_main#0)<l>}.next|))
(define-fun .def_249 () Bool (and .def_106 .def_248))
(define-fun .def_20 () (Array Int Int) (! |!{$(in_main#0)<array.1>}| :next |!{$(in_main#0)<array.1>}.next|))
(define-fun .def_98 () Bool (= .def_20 |!{$(in_main#0)<array.1>}.next|))
(define-fun .def_250 () Bool (and .def_98 .def_249))
(define-fun .def_231 () Bool (<= .def_8 .def_14))
(define-fun .def_251 () Bool (and .def_231 .def_250))
(define-fun .def_256 () Bool (and .def_251 .def_255))
(define-fun .def_75 () Bool (= !pc.next 43))
(define-fun .def_253 () Bool (and .def_75 .def_252))
(define-fun .def_233 () (Array Int Int) (store .def_20 .def_14 |!{$(in_main#0)<$(in___VERIFIER_nondet_int#2)<h#<__VERIFIER_nondet_int.return>>>}|))
(define-fun .def_241 () Bool (= |!{$(in_main#0)<array.1>}.next| .def_233))
(define-fun .def_235 () Int (* (- 1) |!{$(in_main#0)<k>}.next|))
(define-fun .def_236 () Int (+ .def_14 .def_235))
(define-fun .def_237 () Bool (= .def_236 (- 1)))
(define-fun .def_10 () Int (! |!{$(in_main#0)<i>}| :next |!{$(in_main#0)<i>}.next|))
(define-fun .def_86 () Bool (= .def_10 |!{$(in_main#0)<i>}.next|))
(define-fun .def_87 () Bool (and .def_85 .def_86))
(define-fun .def_89 () Bool (and .def_87 .def_88))
(define-fun .def_238 () Bool (and .def_89 .def_237))
(define-fun .def_239 () Bool (and .def_92 .def_238))
(define-fun .def_240 () Bool (and .def_106 .def_239))
(define-fun .def_242 () Bool (and .def_240 .def_241))
(define-fun .def_232 () Bool (not .def_231))
(define-fun .def_243 () Bool (and .def_232 .def_242))
(define-fun .def_254 () Bool (and .def_243 .def_253))
(define-fun .def_257 () Bool (or .def_254 .def_256))
(define-fun .def_223 () Bool (= .def_38 71))
(define-fun .def_227 () Bool (and .def_223 .def_226))
(define-fun .def_213 () Int (* (- 1) |!{$(in_main#0)<i>}.next|))
(define-fun .def_214 () Int (+ .def_10 .def_213))
(define-fun .def_215 () Bool (= .def_214 (- 1)))
(define-fun .def_216 () Bool (and .def_85 .def_215))
(define-fun .def_217 () Bool (and .def_88 .def_216))
(define-fun .def_218 () Bool (and .def_90 .def_217))
(define-fun .def_219 () Bool (and .def_92 .def_218))
(define-fun .def_220 () Bool (and .def_106 .def_219))
(define-fun .def_221 () Bool (and .def_98 .def_220))
(define-fun .def_195 () Int (select .def_20 .def_12))
(define-fun .def_193 () Int (+ .def_12 (- 1)))
(define-fun .def_194 () Int (select .def_20 .def_193))
(define-fun .def_196 () Bool (<= .def_194 .def_195))
(define-fun .def_197 () Bool (not .def_196))
(define-fun .def_191 () Bool (<= .def_12 0))
(define-fun .def_192 () Bool (not .def_191))
(define-fun .def_198 () Bool (and .def_192 .def_197))
(define-fun .def_201 () Bool (not .def_198))
(define-fun .def_222 () Bool (and .def_201 .def_221))
(define-fun .def_228 () Bool (and .def_222 .def_227))
(define-fun .def_184 () Bool (= !pc.next 71))
(define-fun .def_224 () Bool (and .def_184 .def_223))
(define-fun .def_199 () (Array Int Int) (store .def_20 .def_12 .def_194))
(define-fun .def_200 () (Array Int Int) (store .def_199 .def_193 .def_195))
(define-fun .def_210 () Bool (= |!{$(in_main#0)<array.1>}.next| .def_200))
(define-fun .def_203 () Int (* (- 1) |!{$(in_main#0)<j>}.next|))
(define-fun .def_204 () Int (+ .def_12 .def_203))
(define-fun .def_205 () Bool (= .def_204 1))
(define-fun .def_206 () Bool (and .def_87 .def_205))
(define-fun .def_207 () Bool (and .def_90 .def_206))
(define-fun .def_208 () Bool (and .def_92 .def_207))
(define-fun .def_209 () Bool (and .def_106 .def_208))
(define-fun .def_211 () Bool (and .def_209 .def_210))
(define-fun .def_212 () Bool (and .def_198 .def_211))
(define-fun .def_225 () Bool (and .def_212 .def_224))
(define-fun .def_229 () Bool (or .def_225 .def_228))
(define-fun .def_182 () Bool (= .def_38 63))
(define-fun .def_160 () Bool (= !pc.next 92))
(define-fun .def_187 () Bool (and .def_160 .def_182))
(define-fun .def_176 () Bool (= |!{$(in_main#0)<k#1>}.next| 0))
(define-fun .def_91 () Bool (and .def_89 .def_90))
(define-fun .def_177 () Bool (and .def_91 .def_176))
(define-fun .def_178 () Bool (and .def_106 .def_177))
(define-fun .def_179 () Bool (and .def_98 .def_178))
(define-fun .def_167 () Bool (<= .def_8 .def_10))
(define-fun .def_180 () Bool (and .def_167 .def_179))
(define-fun .def_188 () Bool (and .def_180 .def_187))
(define-fun .def_185 () Bool (and .def_182 .def_184))
(define-fun .def_169 () Bool (= .def_10 |!{$(in_main#0)<j>}.next|))
(define-fun .def_170 () Bool (and .def_87 .def_169))
(define-fun .def_171 () Bool (and .def_90 .def_170))
(define-fun .def_172 () Bool (and .def_92 .def_171))
(define-fun .def_173 () Bool (and .def_106 .def_172))
(define-fun .def_174 () Bool (and .def_98 .def_173))
(define-fun .def_168 () Bool (not .def_167))
(define-fun .def_175 () Bool (and .def_168 .def_174))
(define-fun .def_186 () Bool (and .def_175 .def_185))
(define-fun .def_189 () Bool (or .def_186 .def_188))
(define-fun .def_152 () Bool (= .def_38 100))
(define-fun .def_161 () Bool (and .def_152 .def_160))
(define-fun .def_145 () Int (* (- 1) |!{$(in_main#0)<k#1>}.next|))
(define-fun .def_146 () Int (+ .def_16 .def_145))
(define-fun .def_147 () Bool (= .def_146 (- 1)))
(define-fun .def_148 () Bool (and .def_91 .def_147))
(define-fun .def_149 () Bool (and .def_106 .def_148))
(define-fun .def_150 () Bool (and .def_98 .def_149))
(define-fun .def_120 () Bool (<= .def_8 .def_18))
(define-fun .def_151 () Bool (and .def_120 .def_150))
(define-fun .def_162 () Bool (and .def_151 .def_161))
(define-fun .def_112 () Bool (= !pc.next 100))
(define-fun .def_157 () Bool (and .def_112 .def_152))
(define-fun .def_94 () Int (* (- 1) |!{$(in_main#0)<l>}.next|))
(define-fun .def_139 () Int (+ .def_18 .def_94))
(define-fun .def_140 () Bool (= .def_139 (- 1)))
(define-fun .def_93 () Bool (and .def_91 .def_92))
(define-fun .def_141 () Bool (and .def_93 .def_140))
(define-fun .def_142 () Bool (and .def_98 .def_141))
(define-fun .def_123 () Int (select .def_20 .def_18))
(define-fun .def_122 () Int (select .def_20 .def_16))
(define-fun .def_124 () Bool (<= .def_122 .def_123))
(define-fun .def_125 () Int (ite .def_124 1 0))
(define-fun .def_126 () Bool (= .def_125 0))
(define-fun .def_127 () Bool (not .def_126))
(define-fun .def_143 () Bool (and .def_127 .def_142))
(define-fun .def_121 () Bool (not .def_120))
(define-fun .def_144 () Bool (and .def_121 .def_143))
(define-fun .def_158 () Bool (and .def_144 .def_157))
(define-fun .def_154 () Bool (= !pc.next 120))
(define-fun .def_155 () Bool (and .def_152 .def_154))
(define-fun .def_131 () Bool (and .def_85 .def_126))
(define-fun .def_132 () Bool (and .def_86 .def_131))
(define-fun .def_133 () Bool (and .def_88 .def_132))
(define-fun .def_134 () Bool (and .def_90 .def_133))
(define-fun .def_135 () Bool (and .def_92 .def_134))
(define-fun .def_136 () Bool (and .def_106 .def_135))
(define-fun .def_137 () Bool (and .def_98 .def_136))
(define-fun .def_138 () Bool (and .def_121 .def_137))
(define-fun .def_156 () Bool (and .def_138 .def_155))
(define-fun .def_159 () Bool (or .def_156 .def_158))
(define-fun .def_163 () Bool (or .def_159 .def_162))
(define-fun .def_115 () Bool (= !pc.next 0))
(define-fun .def_110 () Bool (= .def_38 92))
(define-fun .def_116 () Bool (and .def_110 .def_115))
(define-fun .def_80 () Int (* (- 1) .def_16))
(define-fun .def_81 () Int (+ .def_8 .def_80))
(define-fun .def_82 () Bool (<= .def_81 1))
(define-fun .def_101 () Bool (and .def_82 .def_85))
(define-fun .def_102 () Bool (and .def_86 .def_101))
(define-fun .def_103 () Bool (and .def_88 .def_102))
(define-fun .def_104 () Bool (and .def_90 .def_103))
(define-fun .def_105 () Bool (and .def_92 .def_104))
(define-fun .def_107 () Bool (and .def_105 .def_106))
(define-fun .def_108 () Bool (and .def_98 .def_107))
(define-fun .def_117 () Bool (and .def_108 .def_116))
(define-fun .def_113 () Bool (and .def_110 .def_112))
(define-fun .def_95 () Int (+ .def_16 .def_94))
(define-fun .def_96 () Bool (= .def_95 (- 1)))
(define-fun .def_97 () Bool (and .def_93 .def_96))
(define-fun .def_99 () Bool (and .def_97 .def_98))
(define-fun .def_83 () Bool (not .def_82))
(define-fun .def_100 () Bool (and .def_83 .def_99))
(define-fun .def_114 () Bool (and .def_100 .def_113))
(define-fun .def_118 () Bool (or .def_114 .def_117))
(define-fun .def_76 () Bool (and .def_41 .def_75))
(define-fun .def_71 () Bool (= |!{$(in_main#0)<array.1>}.next| |%{$(in_main#0)<array.1>}#1|))
(define-fun .def_69 () Bool (= |!{$(in_main#0)<l>}.next| |%{$(in_main#0)<l>}#1|))
(define-fun .def_67 () Bool (= |!{$(in_main#0)<k#1>}.next| |%{$(in_main#0)<k#1>}#1|))
(define-fun .def_65 () Bool (= |!{$(in_main#0)<k>}.next| 0))
(define-fun .def_63 () Bool (= |!{$(in_main#0)<j>}.next| |%{$(in_main#0)<j>}#1|))
(define-fun .def_61 () Bool (= |!{$(in_main#0)<i>}.next| |%{$(in_main#0)<i>}#1|))
(define-fun .def_60 () Bool (= |!{$(in_main#0)<N>}.next| |!{$(in_main#0)<$(in___VERIFIER_nondet_int#0)<h#<__VERIFIER_nondet_int.return>>>}|))
(define-fun .def_62 () Bool (and .def_60 .def_61))
(define-fun .def_64 () Bool (and .def_62 .def_63))
(define-fun .def_66 () Bool (and .def_64 .def_65))
(define-fun .def_68 () Bool (and .def_66 .def_67))
(define-fun .def_70 () Bool (and .def_68 .def_69))
(define-fun .def_72 () Bool (and .def_70 .def_71))
(define-fun .def_55 () Bool (<= |!{$(in_main#0)<$(in___VERIFIER_nondet_int#0)<h#<__VERIFIER_nondet_int.return>>>}| 0))
(define-fun .def_56 () Bool (not .def_55))
(define-fun .def_57 () Int (ite .def_56 1 0))
(define-fun .def_58 () Bool (= .def_57 0))
(define-fun .def_59 () Bool (not .def_58))
(define-fun .def_73 () Bool (and .def_59 .def_72))
(define-fun .def_77 () Bool (and .def_73 .def_76))
(define-fun .def_119 () Bool (or .def_77 .def_118))
(define-fun .def_164 () Bool (or .def_119 .def_163))
(define-fun .def_190 () Bool (or .def_164 .def_189))
(define-fun .def_230 () Bool (or .def_190 .def_229))
(define-fun .def_258 () Bool (! (or .def_230 .def_257) :trans true))
(define-fun .def_165 () Bool (= .def_38 120))
(define-fun .def_259 () Bool (! (not .def_165) :invar-property 0 :invar-property-name ||))
(assert true)
